analyze/results_flowersnark/final_miplib_symretope_if_extended_generating_set_cpx_v802__settings_final_nopeek_norelabel_extend_norestarts__0__neos-1109824.mps.gz.sol
solution status: optimal solution found
objective value:                                  378
C0012                                               1 	(obj:17)
C0020                                               1 	(obj:23)
C0246                                               1 	(obj:10)
C0344                                               1 	(obj:10)
C0396                                               1 	(obj:33)
C0476                                               1 	(obj:19)
C0595                                               1 	(obj:30)
C0696                                               1 	(obj:6)
C0777                                               1 	(obj:16)
C1027                                               1 	(obj:5)
C1102                                               1 	(obj:5)
C1136                                               1 	(obj:14)
C1144                                               1 	(obj:28)
C1188                                               1 	(obj:3)
C1210                                               1 	(obj:43)
C1223                                               1 	(obj:9)
C1258                                               1 	(obj:25)
C1281                                               1 	(obj:0)
C1307                                               1 	(obj:3)
C1318                                               1 	(obj:22)
C1331                                               1 	(obj:22)
C1390                                               1 	(obj:5)
C1435                                               1 	(obj:30)
