analyze/results_flowersnark/final_miplib_symretope_if_extended_generating_set_cpx_v802__settings_final_nopeek_norelabel_extend_norestarts__0__neos-1109824.mps.gz.out
FILENAME:   /home/mcs001/s132664/testsets/IP/miplib2010/neos-1109824.mps.gz
SETTINGS:   settings_final_nopeek_norelabel_extend_norestarts
TIMELIMIT:  7200
OUTPUTNAME: final_miplib_symretope_if_extended_generating_set_cpx_v802__settings_final_nopeek_norelabel_extend_norestarts__0__
BINNAME:    bin/sbcs.linux.x86_64.gnu.opt.cpx
BASENAME:   neos-1109824.mps.gz
SEED:       0
@01 /home/mcs001/s132664/testsets/IP/miplib2010/neos-1109824.mps.gz ===========
@02 neos-1109824.mps.gz
@03 1686649268
SCIP version 8.0.2 [precision: 8 byte] [memory: block] [mode: optimized] [LP solver: CPLEX 20.1.0.0] [GitHash: 5f0473c]
Copyright (C) 2002-2022 Konrad-Zuse-Zentrum fuer Informationstechnik Berlin (ZIB)

Symretope propagation methods - (c) Jasper van Doornmalen, Christopher Hojny.
[GitHash: 2fd0484]

reading parameter file <../settings/settings_final_nopeek_norelabel_extend_norestarts.set> ...

Changed settings:
limits/time = 7200
limits/restarts = 0
misc/usesymmetry = 1
constraints/orbisack/sepafreq = -1
constraints/symresack/sepafreq = -1
propagating/symmetry/addsymresacks = TRUE
propagating/symmetry/detectsubgroups = FALSE
propagating/symmetry/relabelsymretopes = 0
propagating/symmetry/extendgenerators = TRUE
propagating/symmetry/ofsymcomptiming = 0
constraints/symretope/sepafreq = -1
constraints/symretope/peek = FALSE


solving problem ...

original problem has 1520 variables (1520 bin, 0 int, 0 impl, 0 cont) and 28979 constraints
presolving:
(round 1, exhaustive) 0 del vars, 19000 del conss, 0 add conss, 0 chg bounds, 0 chg sides, 0 chg coeffs, 0 upgd conss, 0 impls, 783 clqs
(round 2, exhaustive) 0 del vars, 19000 del conss, 0 add conss, 0 chg bounds, 0 chg sides, 0 chg coeffs, 9903 upgd conss, 0 impls, 783 clqs
   (0.9s) probing: 1000/1520 (65.8%) - 0 fixings, 0 aggregations, 51824 implications, 0 bound changes
   (0.9s) probing: 1001/1520 (65.9%) - 0 fixings, 0 aggregations, 51879 implications, 0 bound changes
   (0.9s) probing aborted: 1000/1000 successive useless probings
   (0.9s) symmetry computation started: requiring (bin +, int +, cont +), (fixed: bin -, int -, cont -)
   (0.9s) symmetry computation finished: 4 generators found (max: 1500, log10 of symmetry group size: 1.7)
(round 3, exhaustive) 0 del vars, 19000 del conss, 9 add conss, 0 chg bounds, 0 chg sides, 0 chg coeffs, 9903 upgd conss, 0 impls, 52662 clqs
presolving (4 rounds: 4 fast, 4 medium, 4 exhaustive):
 0 deleted vars, 19000 deleted constraints, 9 added constraints, 0 tightened bounds, 0 added holes, 0 changed sides, 0 changed coefficients
 0 implications, 52662 cliques
presolved problem has 1520 variables (1520 bin, 0 int, 0 impl, 0 cont) and 9988 constraints
    783 constraints of type <setppc>
     76 constraints of type <linear>
      7 constraints of type <orbisack>
      2 constraints of type <symretope>
   9120 constraints of type <logicor>
transformed objective value is always integral (scale: 1)
Presolving Time: 0.91

 time | node  | left  |LP iter|LP it/n|mem/heur|mdpt |vars |cons |rows |cuts |sepa|confs|strbr|  dualbound   | primalbound  |  gap   | compl. 
  1.1s|     1 |     0 |   137 |     - |    75M |   0 |1520 |  10k|9990 |   0 |  0 |  18 |   0 | 2.780000e+02 |      --      |    Inf | unknown
o 1.2s|     1 |     0 |   686 |     - |feaspump|   0 |1520 |  10k|9990 |   0 |  0 |  18 |   0 | 2.780000e+02 | 5.410000e+02 |  94.60%| unknown
  1.3s|     1 |     0 |   702 |     - |    77M |   0 |1520 |  10k|9994 |   4 |  1 |  18 |   0 | 2.780000e+02 | 5.410000e+02 |  94.60%| unknown
  1.4s|     1 |     0 |   724 |     - |    78M |   0 |1520 |  10k|9997 |   7 |  2 |  18 |   0 | 2.911667e+02 | 5.410000e+02 |  85.80%| unknown
  1.6s|     1 |     0 |   772 |     - |    79M |   0 |1520 |  10k|  10k|  34 |  3 |  18 |   0 | 3.090000e+02 | 5.410000e+02 |  75.08%| unknown
  1.7s|     1 |     0 |   814 |     - |    80M |   0 |1520 |  10k|  10k|  52 |  4 |  18 |   0 | 3.300000e+02 | 5.410000e+02 |  63.94%| unknown
  1.9s|     1 |     0 |   846 |     - |    83M |   0 |1520 |  10k|  10k|  69 |  5 |  18 |   0 | 3.395000e+02 | 5.410000e+02 |  59.35%| unknown
  2.1s|     1 |     0 |   883 |     - |    84M |   0 |1520 |  10k|  10k|  89 |  6 |  18 |   0 | 3.440000e+02 | 5.410000e+02 |  57.27%| unknown
  2.3s|     1 |     0 |   917 |     - |    86M |   0 |1520 |  10k|  10k| 106 |  7 |  18 |   0 | 3.446667e+02 | 5.410000e+02 |  56.96%| unknown
  2.5s|     1 |     0 |   935 |     - |    87M |   0 |1520 |  10k|  10k| 123 |  8 |  18 |   0 | 3.446667e+02 | 5.410000e+02 |  56.96%| unknown
  2.6s|     1 |     0 |   966 |     - |    89M |   0 |1520 |  10k|  10k| 137 |  9 |  23 |   0 | 3.460000e+02 | 5.410000e+02 |  56.36%| unknown
  3.0s|     1 |     0 |   972 |     - |    93M |   0 |1520 |  10k|  10k| 139 | 10 |  30 |   0 | 3.460000e+02 | 5.410000e+02 |  56.36%| unknown
  3.1s|     1 |     0 |   974 |     - |    94M |   0 |1520 |  10k|  10k| 144 | 11 |  30 |   0 | 3.460000e+02 | 5.410000e+02 |  56.36%| unknown
  3.1s|     1 |     0 |   995 |     - |    95M |   0 |1520 |  10k|  10k| 150 | 12 |  31 |   0 | 3.460000e+02 | 5.410000e+02 |  56.36%| unknown
  3.1s|     1 |     0 |  1014 |     - |    96M |   0 |1520 |  10k|  10k| 157 | 13 |  31 |   0 | 3.460000e+02 | 5.410000e+02 |  56.36%| unknown
 time | node  | left  |LP iter|LP it/n|mem/heur|mdpt |vars |cons |rows |cuts |sepa|confs|strbr|  dualbound   | primalbound  |  gap   | compl. 
  3.2s|     1 |     0 |  1043 |     - |    97M |   0 |1520 |  10k|  10k| 164 | 14 |  31 |   0 | 3.460000e+02 | 5.410000e+02 |  56.36%| unknown
  3.2s|     1 |     0 |  1050 |     - |    98M |   0 |1520 |  10k|  10k| 166 | 15 |  31 |   0 | 3.460000e+02 | 5.410000e+02 |  56.36%| unknown
  3.2s|     1 |     0 |  1059 |     - |    98M |   0 |1520 |  10k|  10k| 172 | 16 |  31 |   0 | 3.460000e+02 | 5.410000e+02 |  56.36%| unknown
  3.3s|     1 |     0 |  1078 |     - |    99M |   0 |1520 |  10k|  10k| 179 | 17 |  31 |   0 | 3.460000e+02 | 5.410000e+02 |  56.36%| unknown
  3.3s|     1 |     0 |  1086 |     - |   100M |   0 |1520 |  10k|  10k| 186 | 18 |  31 |   0 | 3.460000e+02 | 5.410000e+02 |  56.36%| unknown
  3.3s|     1 |     0 |  1092 |     - |   103M |   0 |1520 |  10k|  10k| 190 | 19 |  31 |   0 | 3.460000e+02 | 5.410000e+02 |  56.36%| unknown
  4.5s|     1 |     2 |  2482 |     - |   104M |   0 |1520 |  10k|  10k| 190 | 19 |  32 |  21 | 3.460000e+02 | 5.410000e+02 |  56.36%| unknown
* 5.5s|     7 |     6 |  2643 | 258.8 |strongbr|   6 |1520 |  10k|  10k| 190 |  1 |  32 | 118 | 3.460000e+02 | 4.300000e+02 |  24.28%| unknown
* 5.6s|     7 |     6 |  2644 | 259.0 |strongbr|   6 |1520 |  10k|  10k| 190 |  3 |  41 | 123 | 3.460000e+02 | 4.290000e+02 |  23.99%| unknown
* 5.7s|     8 |     5 |  2665 | 225.0 |strongbr|   6 |1520 |  10k|  10k| 190 |  1 |  60 | 131 | 3.460000e+02 | 4.250000e+02 |  22.83%|   0.59%
* 6.7s|    14 |     7 |  2820 | 133.1 |strongbr|   6 |1520 |  10k|  10k| 190 |  1 | 111 | 238 | 3.460000e+02 | 4.030000e+02 |  16.47%|   2.40%
* 7.4s|    19 |     8 |  2993 | 105.7 |strongbr|   6 |1520 |9935 |  10k| 190 |  2 | 209 | 317 | 3.460000e+02 | 3.980000e+02 |  15.03%|   4.09%
* 7.5s|    19 |     8 |  2993 | 105.7 |strongbr|   6 |1520 |9935 |  10k| 190 |  2 | 209 | 320 | 3.460000e+02 | 3.920000e+02 |  13.29%|   4.09%
* 8.0s|    21 |     7 |  3092 | 100.1 |strongbr|   7 |1520 |9057 |  10k| 190 |  2 | 267 | 379 | 3.460000e+02 | 3.870000e+02 |  11.85%|   8.49%
* 9.0s|    27 |     7 |  3368 |  87.6 |strongbr|   7 |1520 |8324 |  10k| 190 |  2 | 388 | 499 | 3.460000e+02 | 3.860000e+02 |  11.56%|  15.02%
 time | node  | left  |LP iter|LP it/n|mem/heur|mdpt |vars |cons |rows |cuts |sepa|confs|strbr|  dualbound   | primalbound  |  gap   | compl. 
*10.1s|    35 |     7 |  3751 |  78.3 |strongbr|  10 |1520 |7911 |  10k| 221 | 12 | 480 | 568 | 3.460000e+02 | 3.810000e+02 |  10.12%|  15.84%
 20.0s|   100 |     8 |  6423 |  53.9 |   134M |  14 |1520 |8151 |  10k| 293 |  3 |1738 |1361 | 3.460000e+02 | 3.810000e+02 |  10.12%|  38.85%
*26.4s|   165 |    11 |  8586 |  45.7 |strongbr|  14 |1520 |8223 |  10k| 367 |  9 |2411 |1833 | 3.516667e+02 | 3.780000e+02 |   7.49%|  50.38%
 29.0s|   200 |    12 |  9317 |  41.3 |   146M |  14 |1520 |7379 |  10k| 430 |  8 |2549 |1921 | 3.516667e+02 | 3.780000e+02 |   7.49%|  63.35%
 36.2s|   300 |    14 | 12287 |  37.4 |   154M |  21 |1520 |8017 |  10k| 583 |  0 |3804 |2367 | 3.545833e+02 | 3.780000e+02 |   6.60%|  83.13%
 42.4s|   400 |     6 | 14788 |  34.3 |   158M |  26 |1520 |7947 |  10k| 747 |  2 |4659 |2664 | 3.617778e+02 | 3.780000e+02 |   4.48%|  89.29%
 46.2s|   500 |    12 | 16561 |  31.0 |   158M |  26 |1520 |7915 |  10k| 772 |  1 |5064 |2862 | 3.640000e+02 | 3.780000e+02 |   3.85%|  90.08%
 49.0s|   600 |    16 | 18372 |  28.9 |   158M |  28 |1520 |8118 |  10k| 785 |  1 |5606 |3037 | 3.640000e+02 | 3.780000e+02 |   3.85%|  90.50%
 51.5s|   700 |    16 | 20129 |  27.2 |   159M |  32 |1520 |8227 |  10k| 803 |  2 |6109 |3184 | 3.660000e+02 | 3.780000e+02 |   3.28%|  92.41%
 53.5s|   800 |    15 | 21607 |  25.7 |   159M |  35 |1520 |8337 |  10k| 815 |  1 |6482 |3305 | 3.667500e+02 | 3.780000e+02 |   3.07%|  92.61%
 55.7s|   900 |     9 | 23061 |  24.4 |   160M |  38 |1520 |8506 |  10k| 829 |  0 |6893 |3433 | 3.672000e+02 | 3.780000e+02 |   2.94%|  94.61%
 57.4s|  1000 |     5 | 24643 |  23.6 |   160M |  39 |1520 |8733 |  10k| 841 |  0 |7277 |3517 | 3.680000e+02 | 3.780000e+02 |   2.72%|  94.83%
 59.5s|  1100 |     5 | 26396 |  23.0 |   161M |  41 |1520 |9020 |  10k| 846 |  0 |7749 |3634 | 3.691042e+02 | 3.780000e+02 |   2.41%|  95.79%

SCIP Status        : problem is solved [optimal solution found]
Solving Time (sec) : 61.08
Solving Nodes      : 1168
Primal Bound       : +3.78000000000000e+02 (12 solutions)
Dual Bound         : +3.78000000000000e+02
Gap                : 0.00 %
SCIP Status        : problem is solved [optimal solution found]
Total Time         :      61.18
  solving          :      61.08
  presolving       :       0.91 (included in solving)
  reading          :       0.10
  copying          :       0.30 (14 #copies) (minimal 0.02, maximal 0.03, average 0.02)
Original Problem   :
  Problem name     : neos-1109824
  Variables        : 1520 (1520 binary, 0 integer, 0 implicit integer, 0 continuous)
  Constraints      : 28979 initial, 28979 maximal
  Objective        : minimize, 1512 non-zeros (abs.min = 3, abs.max = 83)
Presolved Problem  :
  Problem name     : t_neos-1109824
  Variables        : 1520 (1520 binary, 0 integer, 0 implicit integer, 0 continuous)
  Constraints      : 9988 initial, 10120 maximal
  Objective        : minimize, 1512 non-zeros (abs.min = 3, abs.max = 83)
  Nonzeros         : 40868 constraint, 58245 clique table
Presolvers         :   ExecTime  SetupTime  Calls  FixedVars   AggrVars   ChgTypes  ChgBounds   AddHoles    DelCons    AddCons   ChgSides   ChgCoefs
  boundshift       :       0.00       0.00      0          0          0          0          0          0          0          0          0          0
  convertinttobin  :       0.00       0.00      0          0          0          0          0          0          0          0          0          0
  domcol           :       0.01       0.00      2          0          0          0          0          0          0          0          0          0
  dualagg          :       0.00       0.00      0          0          0          0          0          0          0          0          0          0
  dualcomp         :       0.00       0.00      0          0          0          0          0          0          0          0          0          0
  dualinfer        :       0.00       0.00      0          0          0          0          0          0          0          0          0          0
  dualsparsify     :       0.01       0.00      1          0          0          0          0          0          0          0          0          0
  gateextraction   :       0.01       0.00      2          0          0          0          0          0          0          0          0          0
  implics          :       0.00       0.00      4          0          0          0          0          0          0          0          0          0
  inttobinary      :       0.00       0.00      0          0          0          0          0          0          0          0          0          0
  qpkktref         :       0.00       0.00      0          0          0          0          0          0          0          0          0          0
  redvub           :       0.00       0.00      0          0          0          0          0          0          0          0          0          0
  sparsify         :       0.03       0.00      1          0          0          0          0          0          0          0          0          0
  stuffing         :       0.00       0.00      0          0          0          0          0          0          0          0          0          0
  trivial          :       0.00       0.00      4          0          0          0          0          0          0          0          0          0
  tworowbnd        :       0.00       0.00      0          0          0          0          0          0          0          0          0          0
  dualfix          :       0.00       0.00      4          0          0          0          0          0          0          0          0          0
  genvbounds       :       0.00       0.00      0          0          0          0          0          0          0          0          0          0
  probing          :       0.69       0.00      1          0          0          0          0          0          0          0          0          0
  pseudoobj        :       0.00       0.00      0          0          0          0          0          0          0          0          0          0
  symmetry         :       0.04       0.00      1          0          0          0          0          0          0          9          0          0
  vbounds          :       0.00       0.00      2          0          0          0          0          0          0          0          0          0
  knapsack         :       0.00       0.00      0          0          0          0          0          0          0          0          0          0
  setppc           :       0.00       0.00      6          0          0          0          0          0          0          0          0          0
  linear           :       0.06       0.01      8          0          0          0          0          0      19000          0          0          0
  orbisack         :       0.00       0.00      1          0          0          0          0          0          0          0          0          0
  symretope        :       0.00       0.00      1          0          0          0          0          0          0          0          0          0
  logicor          :       0.03       0.00      6          0          0          0          0          0          0          0          0          0
  benders          :       0.00       0.00      0          0          0          0          0          0          0          0          0          0
  components       :       0.00       0.00      1          0          0          0          0          0          0          0          0          0
  root node        :          -          -      -        426          -          -        426          -          -          -          -          -
Constraints        :     Number  MaxNumber  #Separate #Propagate    #EnfoLP    #EnfoRelax  #EnfoPS    #Check   #ResProp    Cutoffs    DomReds       Cuts    Applied      Conss   Children
  benderslp        :          0          0          0          0       1636          0          0        150          0          0          0          0          0          0          0
  integral         :          0          0          0          0       1636          0          0        150          0          0       3420          0          0       6346       1172
  knapsack         :          0+         9          0      16707          0          0          0          0       2474          3       1247          0          0          0          0
  setppc           :        783+       890         19      23751          0          0          0        145     121501        108      20190          0          0          0          0
  linear           :         76+        80         19      23643          0          0          0         14      38973        247      18371          0          0          0          0
  orbisack         :          7          7          0        523          0          0          0         14       1696         23        375          0          0          0          0
  symretope        :          2          2          0       1552          0          0          0         14        537          5        112          0          0          0          0
  logicor          :       9120+      9248         19      13324          0          0          0         14       7676        328       2461          2          1          0          0
  benders          :          0          0          0          0          0          0          0         15          0          0          0          0          0          0          0
  countsols        :          0          0          0          0          0          0          0         15          0          0          0          0          0          0          0
  components       :          0          0          0          0          0          0          0          0          0          0          0          0          0          0          0
Constraint Timings :  TotalTime  SetupTime   Separate  Propagate     EnfoLP     EnfoPS     EnfoRelax   Check    ResProp    SB-Prop
  benderslp        :       0.00       0.00       0.00       0.00       0.00       0.00       0.00       0.00       0.00       0.00
  integral         :      29.22       0.00       0.00       0.00      29.22       0.00       0.00       0.00       0.00       0.00
  knapsack         :       0.04       0.00       0.00       0.01       0.00       0.00       0.00       0.00       0.01       0.01
  setppc           :       0.39       0.00       0.00       0.11       0.00       0.00       0.00       0.00       0.04       0.23
  linear           :       0.60       0.01       0.03       0.24       0.00       0.00       0.00       0.00       0.09       0.23
  orbisack         :       0.01       0.00       0.00       0.01       0.00       0.00       0.00       0.00       0.00       0.01
  symretope        :       0.01       0.00       0.00       0.01       0.00       0.00       0.00       0.00       0.00       0.01
  logicor          :       0.95       0.00       0.03       0.54       0.00       0.00       0.00       0.01       0.03       0.34
  benders          :       0.00       0.00       0.00       0.00       0.00       0.00       0.00       0.00       0.00       0.00
  countsols        :       0.00       0.00       0.00       0.00       0.00       0.00       0.00       0.00       0.00       0.00
  components       :       0.00       0.00       0.00       0.00       0.00       0.00       0.00       0.00       0.00       0.00
Propagators        : #Propagate   #ResProp    Cutoffs    DomReds
  dualfix          :          1          0          0          0
  genvbounds       :          0          0          0          0
  nlobbt           :          0          0          0          0
  obbt             :          0          0          0          0
  probing          :          0          0          0          0
  pseudoobj        :       8581          5          0         10
  redcost          :       5671          0          0      69913
  rootredcost      :         10          0          0        411
  symmetry         :          0          0          0          0
  vbounds          :       7669          0          0          0
Propagator Timings :  TotalTime  SetupTime   Presolve  Propagate    ResProp    SB-Prop
  dualfix          :       0.00       0.00       0.00       0.00       0.00       0.00
  genvbounds       :       0.01       0.00       0.00       0.00       0.00       0.00
  nlobbt           :       0.00       0.00       0.00       0.00       0.00       0.00
  obbt             :       0.00       0.00       0.00       0.00       0.00       0.00
  probing          :       0.69       0.00       0.69       0.00       0.00       0.00
  pseudoobj        :       0.03       0.00       0.00       0.03       0.00       0.00
  redcost          :       0.36       0.00       0.00       0.36       0.00       0.00
  rootredcost      :       0.01       0.00       0.00       0.01       0.00       0.00
  symmetry         :       0.04       0.00       0.04       0.00       0.00       0.00
  vbounds          :       0.02       0.00       0.00       0.01       0.00       0.00
Orbital fixing     :
  vars fixed to 0  :          0
  vars fixed to 1  :          0
Conflict Analysis  :       Time      Calls    Success    DomReds  Conflicts   Literals    Reconvs ReconvLits   Dualrays   Nonzeros   LP Iters   (pool size: [10000,10000])
  propagation      :       0.09        615        576          -       2156      136.3         97       29.3          -          -          -
  infeasible LP    :       0.02         20         20          -         74       78.7          2        9.0         19       90.1          0
  bound exceed. LP :       7.94       1787       1770          -       8623       97.1         88       34.3          9        1.0      20145
  strong branching :       0.00          0          0          -          0        0.0          0        0.0          -          -          0
  pseudo solution  :       0.00          0          0          -          0        0.0          0        0.0          -          -          -
  applied globally :       1.14          -          -          9       7884       55.0          -          -         28          -          -
  applied locally  :          -          -          -          0         41      285.1          -          -          0          -          -
Separators         :   ExecTime  SetupTime      Calls  RootCalls    Cutoffs    DomReds  FoundCuts ViaPoolAdd  DirectAdd    Applied ViaPoolApp  DirectApp      Conss
  cut pool         :       0.44          -        557         37          -          -       4327       2863          -          -          -          -          -    (maximal pool size:       2097)
  aggregation      :       0.35       0.00        211         19          0          0          0          0          0          0          0          0          0
  > cmir           :          -          -          -          -          -          -          -          0          0          0          0          0          -
  > flowcover      :          -          -          -          -          -          -          -          0          0          0          0          0          -
  > knapsackcover  :          -          -          -          -          -          -          -          0          0          0          0          0          -
  cgmip            :       0.00       0.00          0          0          0          0          0          0          0          0          0          0          0
  clique           :       0.06       0.00         19         19          0          0         64         92          0         69         69          0          0
  closecuts        :       0.00       0.00          0          0          0          0          0          0          0          0          0          0          0
  convexproj       :       0.00       0.00          0          0          0          0          0          0          0          0          0          0          0
  disjunctive      :       0.00       0.00          0          0          0          0          0          0          0          0          0          0          0
  eccuts           :       0.00       0.00          0          0          0          0          0          0          0          0          0          0          0
  gauge            :       0.00       0.00          0          0          0          0          0          0          0          0          0          0          0
  gomory           :       9.46       0.00        148         10          0          0       3980       2065        104        431        430          1          0
  > gomorymi       :          -          -          -          -          -          -          -        564         52         57         56          1          -
  > strongcg       :          -          -          -          -          -          -          -       1501         52        374        374          0          -
  impliedbounds    :       0.35       0.00        211         19          0          0          3          3          0          3          3          0          0
  interminor       :       0.00       0.00          0          0          0          0          0          0          0          0          0          0          0
  intobj           :       0.00       0.00          0          0          0          0          0          0          0          0          0          0          0
  mcf              :       0.00       0.00          1          1          0          0          0          0          0          0          0          0          0
  minor            :       0.00       0.00          0          0          0          0          0          0          0          0          0          0          0
  mixing           :       0.00       0.00          0          0          0          0          0          0          0          0          0          0          0
  oddcycle         :       0.00       0.00          0          0          0          0          0          0          0          0          0          0          0
  rapidlearning    :       0.03       0.00          0          0          0          0          0          0          0          0          0          0          0
  rlt              :       0.00       0.00         10         10          0          0          0          0          0          0          0          0          0
  zerohalf         :       0.25       0.00        157         19          0          0        402        703         18        363        351         12          0
Cutselectors       :   ExecTime  SetupTime      Calls  RootCalls   Selected     Forced   Filtered  RootSelec   RootForc   RootFilt 
  hybrid           :       0.01       0.00        213         19        867          0       2120        190          0        248
Pricers            :   ExecTime  SetupTime      Calls       Vars
  problem variables:       0.00          -          0          0
Branching Rules    :   ExecTime  SetupTime   BranchLP  BranchExt   BranchPS    Cutoffs    DomReds       Cuts      Conss   Children
  allfullstrong    :       0.00       0.00          0          0          0          0          0          0          0          0
  cloud            :       0.00       0.00          0          0          0          0          0          0          0          0
  distribution     :       0.00       0.00          0          0          0          0          0          0          0          0
  fullstrong       :       0.00       0.00          0          0          0          0          0          0          0          0
  inference        :       0.00       0.00          0          0          0          0          0          0          0          0
  leastinf         :       0.00       0.00          0          0          0          0          0          0          0          0
  lookahead        :       0.00       0.00          0          0          0          0          0          0          0          0
  mostinf          :       0.00       0.00          0          0          0          0          0          0          0          0
  multaggr         :       0.00       0.00          0          0          0          0          0          0          0          0
  nodereopt        :       0.00       0.00          0          0          0          0          0          0          0          0
  pscost           :       0.00       0.00          0          0          0          0          0          0          0          0
  random           :       0.00       0.00          0          0          0          0          0          0          0          0
  relpscost        :      29.22       0.00       1636          0          0          0       3420          0       7084       1172
  vanillafullstrong:       0.00       0.00          0          0          0          0          0          0          0          0
Primal Heuristics  :   ExecTime  SetupTime      Calls      Found       Best
  LP solutions     :       0.00          -          -          0          0
  relax solutions  :       0.00          -          -          0          0
  pseudo solutions :       0.00          -          -          0          0
  strong branching :       0.03          -          -         10         10
  actconsdiving    :       0.00       0.00          0          0          0
  adaptivediving   :       0.00       0.00          0          0          0
  alns             :       0.24       0.00          5          0          0
  bound            :       0.00       0.00          0          0          0
  clique           :       0.03       0.00          1          0          0
  coefdiving       :       0.00       0.00          0          0          0
  completesol      :       0.00       0.00          0          0          0
  conflictdiving   :       0.03       0.00          1          0          0
  crossover        :       0.09       0.00          2          0          0
  dins             :       0.00       0.00          0          0          0
  distributiondivin:       0.04       0.00          0          0          0
  dps              :       0.00       0.00          0          0          0
  dualval          :       0.00       0.00          0          0          0
  farkasdiving     :       0.87       0.00          1          0          0
  feaspump         :       0.10       0.00          1          1          1
  fixandinfer      :       0.00       0.00          0          0          0
  fracdiving       :       0.00       0.00          0          0          0
  gins             :       0.00       0.00          0          0          0
  guideddiving     :       0.00       0.00          0          0          0
  indicator        :       0.00       0.00          0          0          0
  intdiving        :       0.00       0.00          0          0          0
  intshifting      :       0.00       0.00          0          0          0
  linesearchdiving :       0.00       0.00          0          0          0
  localbranching   :       0.00       0.00          0          0          0
  locks            :       0.01       0.00          1          0          0
  lpface           :       1.11       0.00          1          0          0
  mpec             :       0.00       0.00          0          0          0
  multistart       :       0.00       0.00          0          0          0
  mutation         :       0.00       0.00          0          0          0
  nlpdiving        :       0.00       0.00          0          0          0
  objpscostdiving  :       0.00       0.00          0          0          0
  octane           :       0.00       0.00          0          0          0
  ofins            :       0.00       0.00          0          0          0
  oneopt           :       0.01       0.00         10          0          0
  padm             :       0.00       0.00          0          0          0
  proximity        :       0.00       0.00          0          0          0
  pscostdiving     :       0.00       0.00          0          0          0
  randrounding     :       0.08       0.00        145          0          0
  rens             :       0.04       0.00          1          0          0
  reoptsols        :       0.00       0.00          0          0          0
  repair           :       0.00       0.00          0          0          0
  rins             :       0.28       0.00          6          1          0
  rootsoldiving    :       0.00       0.00          0          0          0
  rounding         :       0.19       0.00        557          0          0
  shiftandpropagate:       0.00       0.00          1          0          0
  shifting         :       0.14       0.00        220          0          0
  simplerounding   :       0.00       0.00          0          0          0
  subnlp           :       0.00       0.00          0          0          0
  trivial          :       0.00       0.00          2          0          0
  trivialnegation  :       0.00       0.00          0          0          0
  trustregion      :       0.00       0.00          0          0          0
  trysol           :       0.00       0.00          0          0          0
  twoopt           :       0.00       0.00          0          0          0
  undercover       :       0.00       0.00          0          0          0
  vbounds          :       0.03       0.00          1          0          0
  veclendiving     :       0.00       0.00          0          0          0
  zeroobj          :       0.00       0.00          0          0          0
  zirounding       :       0.03       0.00        586          0          0
  other solutions  :          -          -          -          0          -
LP                 :       Time      Calls Iterations  Iter/call   Iter/sec  Time-0-It Calls-0-It    ItLimit
  primal LP        :       0.79         93          0       0.00       0.00       0.79         93
  dual LP          :      10.04       4304      25361      10.26    2526.20       1.10       1833
  lex dual LP      :       0.00          0          0       0.00          -
  barrier LP       :       0.00          0          0       0.00          -       0.00          0
  resolve instable :       0.00          0          0       0.00          -
  diving/probing LP:       2.58        314       1955       6.23     757.10
  strong branching :      14.20       3706      54792      14.78    3857.53          -          -        478
    (at root node) :          -         21        784      37.33          -
  conflict analysis:       4.90       2163      20145       9.31    4113.99
B&B Tree           :
  number of runs   :          1
  nodes            :       1168 (586 internal, 582 leaves)
  feasible leaves  :          0
  infeas. leaves   :        130
  objective leaves :        452
  nodes (total)    :       1168 (586 internal, 582 leaves)
  nodes left       :          0
  max depth        :         45
  max depth (total):         45
  backtracks       :        165 (14.1%)
  early backtracks :          0 (0.0%)
  nodes exc. ref.  :          0 (0.0%)
  delayed cutoffs  :          4
  repropagations   :        437 (723 domain reductions, 4 cutoffs)
  avg switch length:       3.43
  switching time   :       1.31
Root Node          :
  First LP value   : +2.78000000000000e+02
  First LP Iters   :        135 (5266.44 Iter/sec)
  First LP Time    :       0.03
  Final Dual Bound : +3.46000000000000e+02
  Final Root Iters :       1090
  Root LP Estimate : +3.70254878982544e+02
Solution           :
  Solutions found  :         12 (11 improvements)
  First Solution   : +5.41000000000000e+02   (in run 1, after 1 nodes, 1.18 seconds, depth 0, found by <feaspump>)
  Gap First Sol.   :      94.60 %
  Gap Last Sol.    :       7.49 %
  Primal Bound     : +3.78000000000000e+02   (in run 1, after 165 nodes, 26.39 seconds, depth 16, found by <relaxation>)
  Dual Bound       : +3.78000000000000e+02
  Gap              :       0.00 %
Integrals          :      Total       Avg%
  primal-dual      :     644.32      10.55
  primal-ref       :          -          - (not evaluated)
  dual-ref         :          -          - (not evaluated)
written solution information to file <results/final_miplib_symretope_if_extended_generating_set_cpx_v802__settings_final_nopeek_norelabel_extend_norestarts__0__neos-1109824.mps.gz.sol>
@04 1686649330
